Examples/BinKnap1.lp
MAXIMIZE
    obj: 29 x1 + 32 x2 + 33 x3 + 28 x4 + 35 x5
SUBJECT TO
    90 x1 + 92 x2 + 95 x3 + 91 x4 + 97 x5 <= 310
BINARY
    x1 x2 x3 x4 x5
END
