Examples/BinKnap1.mps
NAME obj
OBJSENSE MAX
ROWS
 N  OBJ
 L  R0      
COLUMNS
    MARKER    'MARKER'                 'INTORG'
    x1        OBJ       29
    x1        R0        90
    x2        OBJ       32
    x2        R0        92
    x3        OBJ       33
    x3        R0        95
    x4        OBJ       28
    x4        R0        91
    x5        OBJ       35
    x5        R0        97
    MARKER    'MARKER'                 'INTEND'
RHS
    RHS1      R0        310
BOUNDS
 BV BND1      x1      
 BV BND1      x2      
 BV BND1      x3      
 BV BND1      x4      
 BV BND1      x5      
ENDATA
